c ===========================================================================================]
c Social Golfers Problem CNF generated by https://github.com/Roiqk7/SocialGolfersProblem.git |
c ===========================================================================================]
p cnf 20 58
1 2 0
-1 -2 0
3 4 0
-3 -4 0
5 6 0
-5 -6 0
7 8 0
-7 -8 0
-1 -3 -5 0
-1 -3 -7 0
-1 -5 -7 0
-3 -5 -7 0
-2 -4 -6 0
-2 -4 -8 0
-2 -6 -8 0
-4 -6 -8 0
-9 1 0
-9 3 0
-1 -3 9 0
-10 1 0
-10 5 0
-1 -5 10 0
-11 1 0
-11 7 0
-1 -7 11 0
-12 3 0
-12 5 0
-3 -5 12 0
-13 3 0
-13 7 0
-3 -7 13 0
-14 5 0
-14 7 0
-5 -7 14 0
-15 2 0
-15 4 0
-2 -4 15 0
-16 2 0
-16 6 0
-2 -6 16 0
-17 2 0
-17 8 0
-2 -8 17 0
-18 4 0
-18 6 0
-4 -6 18 0
-19 4 0
-19 8 0
-4 -8 19 0
-20 6 0
-20 8 0
-6 -8 20 0
-9 -15 0
-10 -16 0
-11 -17 0
-12 -18 0
-13 -19 0
-14 -20 0
